p cnf 14 31
14 -12 -7 0
-14 8 -3 0
14 7 -5 0
14 7 2 0
-14 4 1 0
-13 12 6 0
13 12 3 0
-13 -11 -7 0
13 10 3 0
13 -9 1 0
13 -6 -5 0
-13 -6 2 0
13 -4 3 0
-12 -10 -9 0
12 -10 7 0
12 -10 -2 0
-12 -7 -1 0
-12 -4 -2 0
11 -10 7 0
11 9 3 0
11 9 -2 0
-11 3 -2 0
10 7 -6 0
-10 -5 -4 0
9 7 5 0
-8 7 6 0
8 -6 -1 0
-8 -4 -2 0
7 -6 -5 0
7 6 4 0
6 2 -1 0
